; Copyright (c) 2026 The RIINA Authors. All rights reserved.
; Copyright (c) 2026 The RIINA Authors.
; Auto-generated from 02_FORMAL/coq/domains/SingaporeMAS_TRM.v (21 assertions)
; Generated by scripts/generate-full-stack.py
; Module: SingaporeMAS_TRM

(set-logic ALL)
(set-option :produce-models true)

; MASLicenseType (matches Coq: Inductive MASLicenseType)
(declare-datatypes ((MASLicenseType 0)) (((FullBank) (WholesaleBank) (MerchantBank) (InsuranceCo) (CapitalMarketsServices) (PaymentInstitution) (MajorPaymentInstitution))))

; PatchCriticality (matches Coq: Inductive PatchCriticality)
(declare-datatypes ((PatchCriticality 0)) (((PatchCritical) (PatchHigh) (PatchMedium) (PatchLow))))

; patch_deadline (matches Coq: Definition patch_deadline)
(define-fun patch_deadline ((p PatchCriticality)) Int
  true)

; cyber_hygiene_mfa (matches Coq: Definition cyber_hygiene_mfa)
(define-fun cyber_hygiene_mfa ((e MASRegulatedEntity)) Prop
  true)

; cyber_hygiene_patching (matches Coq: Definition cyber_hygiene_patching)
(define-fun cyber_hygiene_patching ((e MASRegulatedEntity)) Prop
  true)

; cyber_hygiene_network (matches Coq: Definition cyber_hygiene_network)
(define-fun cyber_hygiene_network ((e MASRegulatedEntity)) Prop
  true)

; cyber_hygiene_antimalware (matches Coq: Definition cyber_hygiene_antimalware)
(define-fun cyber_hygiene_antimalware ((e MASRegulatedEntity)) Prop
  true)

; cyber_hygiene_pam (matches Coq: Definition cyber_hygiene_pam)
(define-fun cyber_hygiene_pam ((e MASRegulatedEntity)) Prop
  true)

; cyber_hygiene_compliant (matches Coq: Definition cyber_hygiene_compliant)
(define-fun cyber_hygiene_compliant ((e MASRegulatedEntity)) Prop
  true)

; patch_applied_in_time (matches Coq: Definition patch_applied_in_time)
(define-fun patch_applied_in_time ((criticality PatchCriticality)) Prop
  true)

; trm_governance (matches Coq: Definition trm_governance)
(define-fun trm_governance ((e MASRegulatedEntity)) Prop
  true)

; trm_security_testing (matches Coq: Definition trm_security_testing)
(define-fun trm_security_testing ((e MASRegulatedEntity)) Prop
  true)

; trm_resilience (matches Coq: Definition trm_resilience)
(define-fun trm_resilience ((e MASRegulatedEntity)) Prop
  true)

; mas_fully_compliant (matches Coq: Definition mas_fully_compliant)
(define-fun mas_fully_compliant ((e MASRegulatedEntity)) Prop
  true)

; count_mas_controls (matches Coq: Definition count_mas_controls)
(define-fun count_mas_controls ((e MASRegulatedEntity)) Int
  true)

; mas_cyber_hygiene (matches Coq: Theorem mas_cyber_hygiene)
(assert (= true true)) ; mas_cyber_hygiene [untranslatable]

; critical_patch_14_days (matches Coq: Theorem critical_patch_14_days)
(assert (= true true)) ; critical_patch_14_days [untranslatable]

; critical_strictest (matches Coq: Theorem critical_strictest)
(assert (= true true)) ; critical_strictest [untranslatable]

; trm_governance_proof (matches Coq: Theorem trm_governance_proof)
(assert (= true true)) ; trm_governance_proof [untranslatable]

; mas_composition (matches Coq: Theorem mas_composition)
(assert (= true true)) ; mas_composition [untranslatable]

; mas_license_coverage (matches Coq: Theorem mas_license_coverage)
(assert (= true true)) ; mas_license_coverage [untranslatable]

; ch_requires_mfa (matches Coq: Theorem ch_requires_mfa)
(assert (= true true)) ; ch_requires_mfa [untranslatable]

; ch_requires_patching (matches Coq: Theorem ch_requires_patching)
(assert (= true true)) ; ch_requires_patching [untranslatable]

; ch_requires_network (matches Coq: Theorem ch_requires_network)
(assert (= true true)) ; ch_requires_network [untranslatable]

; ch_requires_antimalware (matches Coq: Theorem ch_requires_antimalware)
(assert (= true true)) ; ch_requires_antimalware [untranslatable]

; ch_requires_pam (matches Coq: Theorem ch_requires_pam)
(assert (= true true)) ; ch_requires_pam [untranslatable]

; patch_critical_strictest (matches Coq: Theorem patch_critical_strictest)
(assert (= true true)) ; patch_critical_strictest [untranslatable]

; patch_low_most_lenient (matches Coq: Theorem patch_low_most_lenient)
(assert (= true true)) ; patch_low_most_lenient [untranslatable]

; patch_deadline_positive (matches Coq: Theorem patch_deadline_positive)
(assert (= true true)) ; patch_deadline_positive [untranslatable]

; patch_critical_subsumes_all (matches Coq: Theorem patch_critical_subsumes_all)
(assert (= true true)) ; patch_critical_subsumes_all [untranslatable]

; mas_full_requires_hygiene (matches Coq: Theorem mas_full_requires_hygiene)
(assert (= true true)) ; mas_full_requires_hygiene [untranslatable]

; mas_full_requires_governance (matches Coq: Theorem mas_full_requires_governance)
(assert (= true true)) ; mas_full_requires_governance [untranslatable]

; mas_full_requires_testing (matches Coq: Theorem mas_full_requires_testing)
(assert (= true true)) ; mas_full_requires_testing [untranslatable]

; mas_full_requires_resilience (matches Coq: Theorem mas_full_requires_resilience)
(assert (= true true)) ; mas_full_requires_resilience [untranslatable]

; count_mas_bounded (matches Coq: Theorem count_mas_bounded)
(assert (= true true)) ; count_mas_bounded [untranslatable]

; mas_seven_licenses (matches Coq: Theorem mas_seven_licenses)
(assert (= (length all_mas_license_types) 7)) ; mas_seven_licenses

; Verify all assertions are satisfiable
(check-sat)
(exit)
